NAME /Users/henri/Research/solvers/instances/idol-instances/robust/collection/cbp_Subramanyam_et_al_2020/CapBud_N25_1/models/uncertain_technology_matrix/
ROWS
 N  OBJ
 L  capacity
 L  c_3535
 L  c_3536
 L  c_3537
 L  c_3538
 L  c_3539
 L  c_3540
 L  c_3541
 L  c_3542
 L  c_3543
 L  c_3544
 L  c_3545
 L  c_3546
 L  c_3547
 L  c_3548
 L  c_3549
 L  c_3550
 L  c_3551
 L  c_3552
 L  c_3553
 L  c_3554
 L  c_3555
 L  c_3556
 L  c_3557
 L  c_3558
 L  c_3559
COLUMNS
    MARKER    'MARKER'                 'INTORG'
    x_0        OBJ        9.30683
    x_0        c_3535     1
    x_0        capacity   1.86137
    x_1        OBJ        8.97567
    x_1        c_3536     1
    x_1        capacity   1.79513
    x_2        OBJ        9.62441
    x_2        c_3537     1
    x_2        capacity   1.92488
    x_3        OBJ        0.788229
    x_3        c_3538     1
    x_3        capacity   0.157646
    x_4        OBJ        6.34582
    x_4        c_3539     1
    x_4        capacity   1.26916
    x_5        OBJ        2.26139
    x_5        c_3540     1
    x_5        capacity   0.452278
    x_6        OBJ        2.20773
    x_6        c_3541     1
    x_6        capacity   0.441546
    x_7        OBJ        5.76489
    x_7        c_3542     1
    x_7        capacity   1.15298
    x_8        OBJ        9.86706
    x_8        c_3543     1
    x_8        capacity   1.97341
    x_9        OBJ        0.409671
    x_9        c_3544     1
    x_9        capacity   0.0819343
    x_10       OBJ        1.21123
    x_10       c_3545     1
    x_10       capacity   0.242247
    x_11       OBJ        7.11123
    x_11       c_3546     1
    x_11       capacity   1.42225
    x_12       OBJ        0.750796
    x_12       c_3547     1
    x_12       capacity   0.150159
    x_13       OBJ        0.105889
    x_13       c_3548     1
    x_13       capacity   0.0211779
    x_14       OBJ        8.60911
    x_14       c_3549     1
    x_14       capacity   1.72182
    x_15       OBJ        8.37507
    x_15       c_3550     1
    x_15       capacity   1.67501
    x_16       OBJ        4.87101
    x_16       c_3551     1
    x_16       capacity   0.974201
    x_17       OBJ        3.52444
    x_17       c_3552     1
    x_17       capacity   0.704889
    x_18       OBJ        8.2528
    x_18       c_3553     1
    x_18       capacity   1.65056
    x_19       OBJ        5.10928
    x_19       c_3554     1
    x_19       capacity   1.02186
    x_20       OBJ        9.13367
    x_20       c_3555     1
    x_20       capacity   1.82673
    x_21       OBJ        8.73599
    x_21       c_3556     1
    x_21       capacity   1.7472
    x_22       OBJ        0.579607
    x_22       c_3557     1
    x_22       capacity   0.115921
    x_23       OBJ        8.71541
    x_23       c_3558     1
    x_23       capacity   1.74308
    x_24       OBJ        6.23526
    x_24       c_3559     1
    x_24       capacity   1.24705
    y_0        OBJ        7.44546
    y_0        c_3535     1
    y_0        capacity   1.86137
    y_1        OBJ        7.18053
    y_1        c_3536     1
    y_1        capacity   1.79513
    y_2        OBJ        7.69953
    y_2        c_3537     1
    y_2        capacity   1.92488
    y_3        OBJ        0.630583
    y_3        c_3538     1
    y_3        capacity   0.157646
    y_4        OBJ        5.07666
    y_4        c_3539     1
    y_4        capacity   1.26916
    y_5        OBJ        1.80911
    y_5        c_3540     1
    y_5        capacity   0.452278
    y_6        OBJ        1.76618
    y_6        c_3541     1
    y_6        capacity   0.441546
    y_7        OBJ        4.61191
    y_7        c_3542     1
    y_7        capacity   1.15298
    y_8        OBJ        7.89365
    y_8        c_3543     1
    y_8        capacity   1.97341
    y_9        OBJ        0.327737
    y_9        c_3544     1
    y_9        capacity   0.0819343
    y_10       OBJ        0.968988
    y_10       c_3545     1
    y_10       capacity   0.242247
    y_11       OBJ        5.68899
    y_11       c_3546     1
    y_11       capacity   1.42225
    y_12       OBJ        0.600637
    y_12       c_3547     1
    y_12       capacity   0.150159
    y_13       OBJ        0.0847115
    y_13       c_3548     1
    y_13       capacity   0.0211779
    y_14       OBJ        6.88728
    y_14       c_3549     1
    y_14       capacity   1.72182
    y_15       OBJ        6.70005
    y_15       c_3550     1
    y_15       capacity   1.67501
    y_16       OBJ        3.89681
    y_16       c_3551     1
    y_16       capacity   0.974201
    y_17       OBJ        2.81955
    y_17       c_3552     1
    y_17       capacity   0.704889
    y_18       OBJ        6.60224
    y_18       c_3553     1
    y_18       capacity   1.65056
    y_19       OBJ        4.08742
    y_19       c_3554     1
    y_19       capacity   1.02186
    y_20       OBJ        7.30694
    y_20       c_3555     1
    y_20       capacity   1.82673
    y_21       OBJ        6.98879
    y_21       c_3556     1
    y_21       capacity   1.7472
    y_22       OBJ        0.463686
    y_22       c_3557     1
    y_22       capacity   0.115921
    y_23       OBJ        6.97233
    y_23       c_3558     1
    y_23       capacity   1.74308
    y_24       OBJ        4.98821
    y_24       c_3559     1
    y_24       capacity   1.24705
    MARKER    'MARKER'                 'INTEND'
RHS
    RHS       capacity   68.4362
    RHS       c_3535     1
    RHS       c_3536     1
    RHS       c_3537     1
    RHS       c_3538     1
    RHS       c_3539     1
    RHS       c_3540     1
    RHS       c_3541     1
    RHS       c_3542     1
    RHS       c_3543     1
    RHS       c_3544     1
    RHS       c_3545     1
    RHS       c_3546     1
    RHS       c_3547     1
    RHS       c_3548     1
    RHS       c_3549     1
    RHS       c_3550     1
    RHS       c_3551     1
    RHS       c_3552     1
    RHS       c_3553     1
    RHS       c_3554     1
    RHS       c_3555     1
    RHS       c_3556     1
    RHS       c_3557     1
    RHS       c_3558     1
    RHS       c_3559     1
BOUNDS
 LI BND       x_0        0
 UI BND       x_0        1
 LI BND       x_1        0
 UI BND       x_1        1
 LI BND       x_2        0
 UI BND       x_2        1
 LI BND       x_3        0
 UI BND       x_3        1
 LI BND       x_4        0
 UI BND       x_4        1
 LI BND       x_5        0
 UI BND       x_5        1
 LI BND       x_6        0
 UI BND       x_6        1
 LI BND       x_7        0
 UI BND       x_7        1
 LI BND       x_8        0
 UI BND       x_8        1
 LI BND       x_9        0
 UI BND       x_9        1
 LI BND       x_10       0
 UI BND       x_10       1
 LI BND       x_11       0
 UI BND       x_11       1
 LI BND       x_12       0
 UI BND       x_12       1
 LI BND       x_13       0
 UI BND       x_13       1
 LI BND       x_14       0
 UI BND       x_14       1
 LI BND       x_15       0
 UI BND       x_15       1
 LI BND       x_16       0
 UI BND       x_16       1
 LI BND       x_17       0
 UI BND       x_17       1
 LI BND       x_18       0
 UI BND       x_18       1
 LI BND       x_19       0
 UI BND       x_19       1
 LI BND       x_20       0
 UI BND       x_20       1
 LI BND       x_21       0
 UI BND       x_21       1
 LI BND       x_22       0
 UI BND       x_22       1
 LI BND       x_23       0
 UI BND       x_23       1
 LI BND       x_24       0
 UI BND       x_24       1
 LI BND       y_0        0
 UI BND       y_0        1
 LI BND       y_1        0
 UI BND       y_1        1
 LI BND       y_2        0
 UI BND       y_2        1
 LI BND       y_3        0
 UI BND       y_3        1
 LI BND       y_4        0
 UI BND       y_4        1
 LI BND       y_5        0
 UI BND       y_5        1
 LI BND       y_6        0
 UI BND       y_6        1
 LI BND       y_7        0
 UI BND       y_7        1
 LI BND       y_8        0
 UI BND       y_8        1
 LI BND       y_9        0
 UI BND       y_9        1
 LI BND       y_10       0
 UI BND       y_10       1
 LI BND       y_11       0
 UI BND       y_11       1
 LI BND       y_12       0
 UI BND       y_12       1
 LI BND       y_13       0
 UI BND       y_13       1
 LI BND       y_14       0
 UI BND       y_14       1
 LI BND       y_15       0
 UI BND       y_15       1
 LI BND       y_16       0
 UI BND       y_16       1
 LI BND       y_17       0
 UI BND       y_17       1
 LI BND       y_18       0
 UI BND       y_18       1
 LI BND       y_19       0
 UI BND       y_19       1
 LI BND       y_20       0
 UI BND       y_20       1
 LI BND       y_21       0
 UI BND       y_21       1
 LI BND       y_22       0
 UI BND       y_22       1
 LI BND       y_23       0
 UI BND       y_23       1
 LI BND       y_24       0
 UI BND       y_24       1
ENDATA
